NAME          DCAP_2_4_3_500_SS143
ROWS
 N  OBJ
 L  CON1
 L  CON2
 L  CON3
 L  CON4
 L  CON5
 L  CON6
 L  CON7
 L  CON8
 L  CON9
 L  CON10
 L  CON11
 L  CON12
 E  CON13
 E  CON14
 E  CON15
 E  CON16
 E  CON17
 E  CON18
 E  CON19
 E  CON20
 E  CON21
 E  CON22
 E  CON23
 E  CON24
COLUMNS
    x[1,1]    OBJ       6.180167      CON1      1.000000    
    x[1,1]    CON7      -1.000000     CON8      -1.000000   
    x[1,1]    CON9      -1.000000   
    x[1,2]    OBJ       6.563535      CON2      1.000000    
    x[1,2]    CON8      -1.000000     CON9      -1.000000   
    x[1,3]    OBJ       7.443064      CON3      1.000000    
    x[1,3]    CON9      -1.000000   
    x[2,1]    OBJ       6.732585      CON4      1.000000    
    x[2,1]    CON10     -1.000000     CON11     -1.000000   
    x[2,1]    CON12     -1.000000   
    x[2,2]    OBJ       5.039546      CON5      1.000000    
    x[2,2]    CON11     -1.000000     CON12     -1.000000   
    x[2,3]    OBJ       6.054841      CON6      1.000000    
    x[2,3]    CON12     -1.000000   
    MARKER    'MARKER'                'INTORG'
    u[1,1]    OBJ       48.076654     CON1      -1.000000   
    u[1,2]    OBJ       20.066487     CON2      -1.000000   
    u[1,3]    OBJ       32.230043     CON3      -1.000000   
    u[2,1]    OBJ       49.996186     CON4      -1.000000   
    u[2,2]    OBJ       49.466655     CON5      -1.000000   
    u[2,3]    OBJ       27.484319     CON6      -1.000000   
    y[1,1,1]  OBJ       8.185917      CON7      0.674449    
    y[1,1,1]  CON13     1.000000    
    y[1,1,2]  OBJ       5.253391      CON8      1.398602    
    y[1,1,2]  CON14     1.000000    
    y[1,1,3]  OBJ       7.896163      CON9      0.664030    
    y[1,1,3]  CON15     1.000000    
    y[1,2,1]  OBJ       7.840497      CON7      0.512245    
    y[1,2,1]  CON16     1.000000    
    y[1,2,2]  OBJ       8.991741      CON8      0.559775    
    y[1,2,2]  CON17     1.000000    
    y[1,2,3]  OBJ       6.675335      CON9      0.529857    
    y[1,2,3]  CON18     1.000000    
    y[1,3,1]  OBJ       7.882746      CON7      1.362209    
    y[1,3,1]  CON19     1.000000    
    y[1,3,2]  OBJ       5.565867      CON8      0.695408    
    y[1,3,2]  CON20     1.000000    
    y[1,3,3]  OBJ       6.523659      CON9      0.520635    
    y[1,3,3]  CON21     1.000000    
    y[1,4,1]  OBJ       5.935082      CON7      0.961393    
    y[1,4,1]  CON22     1.000000    
    y[1,4,2]  OBJ       6.869775      CON8      0.731246    
    y[1,4,2]  CON23     1.000000    
    y[1,4,3]  OBJ       8.174922      CON9      0.735255    
    y[1,4,3]  CON24     1.000000    
    y[2,1,1]  OBJ       9.660304      CON10     0.674449    
    y[2,1,1]  CON13     1.000000    
    y[2,1,2]  OBJ       5.619289      CON11     1.398602    
    y[2,1,2]  CON14     1.000000    
    y[2,1,3]  OBJ       6.593599      CON12     0.664030    
    y[2,1,3]  CON15     1.000000    
    y[2,2,1]  OBJ       7.444487      CON10     0.512245    
    y[2,2,1]  CON16     1.000000    
    y[2,2,2]  OBJ       5.940321      CON11     0.559775    
    y[2,2,2]  CON17     1.000000    
    y[2,2,3]  OBJ       8.082519      CON12     0.529857    
    y[2,2,3]  CON18     1.000000    
    y[2,3,1]  OBJ       5.434380      CON10     1.362209    
    y[2,3,1]  CON19     1.000000    
    y[2,3,2]  OBJ       6.801615      CON11     0.695408    
    y[2,3,2]  CON20     1.000000    
    y[2,3,3]  OBJ       6.448435      CON12     0.520635    
    y[2,3,3]  CON21     1.000000    
    y[2,4,1]  OBJ       6.625611      CON10     0.961393    
    y[2,4,1]  CON22     1.000000    
    y[2,4,2]  OBJ       8.507828      CON11     0.731246    
    y[2,4,2]  CON23     1.000000    
    y[2,4,3]  OBJ       7.596376      CON12     0.735255    
    y[2,4,3]  CON24     1.000000    
    z[1,1]    OBJ       508.807684    CON13     1.000000    
    z[1,2]    OBJ       624.038348    CON14     1.000000    
    z[1,3]    OBJ       748.936516    CON15     1.000000    
    z[2,1]    OBJ       746.432295    CON16     1.000000    
    z[2,2]    OBJ       883.233898    CON17     1.000000    
    z[2,3]    OBJ       618.281224    CON18     1.000000    
    z[3,1]    OBJ       829.157431    CON19     1.000000    
    z[3,2]    OBJ       955.951062    CON20     1.000000    
    z[3,3]    OBJ       840.068460    CON21     1.000000    
    z[4,1]    OBJ       838.481285    CON22     1.000000    
    z[4,2]    OBJ       697.412033    CON23     1.000000    
    z[4,3]    OBJ       536.740524    CON24     1.000000    
    MARKER    'MARKER'                 'INTEND'
RHS
    RHS       CON1      -0.000000     CON2      -0.000000   
    RHS       CON3      -0.000000     CON4      -0.000000   
    RHS       CON5      -0.000000     CON6      -0.000000   
    RHS       CON7      -0.000000     CON8      -0.000000   
    RHS       CON9      -0.000000     CON10     -0.000000   
    RHS       CON11     -0.000000     CON12     -0.000000   
    RHS       CON13     1.000000      CON14     1.000000    
    RHS       CON15     1.000000      CON16     1.000000    
    RHS       CON17     1.000000      CON18     1.000000    
    RHS       CON19     1.000000      CON20     1.000000    
    RHS       CON21     1.000000      CON22     1.000000    
    RHS       CON23     1.000000      CON24     1.000000    
BOUNDS
 BV BOUND     u[1,1]  
 BV BOUND     u[1,2]  
 BV BOUND     u[1,3]  
 BV BOUND     u[2,1]  
 BV BOUND     u[2,2]  
 BV BOUND     u[2,3]  
 BV BOUND     y[1,1,1]
 BV BOUND     y[1,1,2]
 BV BOUND     y[1,1,3]
 BV BOUND     y[1,2,1]
 BV BOUND     y[1,2,2]
 BV BOUND     y[1,2,3]
 BV BOUND     y[1,3,1]
 BV BOUND     y[1,3,2]
 BV BOUND     y[1,3,3]
 BV BOUND     y[1,4,1]
 BV BOUND     y[1,4,2]
 BV BOUND     y[1,4,3]
 BV BOUND     y[2,1,1]
 BV BOUND     y[2,1,2]
 BV BOUND     y[2,1,3]
 BV BOUND     y[2,2,1]
 BV BOUND     y[2,2,2]
 BV BOUND     y[2,2,3]
 BV BOUND     y[2,3,1]
 BV BOUND     y[2,3,2]
 BV BOUND     y[2,3,3]
 BV BOUND     y[2,4,1]
 BV BOUND     y[2,4,2]
 BV BOUND     y[2,4,3]
 BV BOUND     z[1,1]  
 BV BOUND     z[1,2]  
 BV BOUND     z[1,3]  
 BV BOUND     z[2,1]  
 BV BOUND     z[2,2]  
 BV BOUND     z[2,3]  
 BV BOUND     z[3,1]  
 BV BOUND     z[3,2]  
 BV BOUND     z[3,3]  
 BV BOUND     z[4,1]  
 BV BOUND     z[4,2]  
 BV BOUND     z[4,3]  
ENDATA
